% From JaCoP's nonogramRepository/data124.nin
 rows = 25;
 row_rule_len = 5;
 row_rules = array2d(1..rows, 1..row_rule_len, 
[
 0,0,0,0,3,
 0,0,0,0,4,
 0,0,0,0,3,
 0,0,0,3,6,
 0,0,3,4,3,
 0,0,3,5,4,
 3,4,1,1,2,
 0,0,3,5,3,
 0,3,4,1,2,
 0,0,0,16,2,
 1,5,4,1,2,
 0,0,2,7,11,
 0,1,7,3,3,
 0,1,8,3,2,
 0,0,1,8,1,
 0,0,1,5,2,
 0,0,0,1,1,
 0,0,2,4,2,
 0,2,2,6,2,
 0,2,2,2,1,
 0,0,0,7,4,
 0,0,3,3,3,
 0,0,2,2,3,
 0,0,3,3,4,
 0,0,3,3,4
]);

 cols = 25;
 col_rule_len = 5;
 col_rules = array2d(1..cols, 1..col_rule_len, 
[
 0,0,0,0,3,
 0,0,0,7,6,
 0,0,10,2,5,
 0,10,7,1,2,
 0,2,4,2,1,
 0,0,0,1,4,
 0,0,1,5,6,
 0,1,5,2,2,
 0,0,7,2,1,
 0,0,0,7,1,
 0,0,0,7,1,
 0,0,0,6,2,
 0,0,0,6,1,
 0,0,1,2,1,
 0,0,0,6,1,
 0,0,0,9,1,
 0,0,0,10,3,
 0,0,0,11,5,
 0,3,1,1,5,
 0,0,4,1,7,
 1,1,2,2,2,
 0,4,1,3,1,
 0,0,3,1,5,
 0,0,0,0,10,
 0,0,0,0,8
]);

